This is Ipopt version 3.14.16, running with linear solver MUMPS 5.7.3.

Number of nonzeros in equality constraint Jacobian...:        0
Number of nonzeros in inequality constraint Jacobian.:      325
Number of nonzeros in Lagrangian Hessian.............:        0

Total number of variables............................:       13
                     variables with only lower bounds:        0
                variables with lower and upper bounds:       13
                     variables with only upper bounds:        0
Total number of equality constraints.................:        0
Total number of inequality constraints...............:       25
        inequality constraints with only lower bounds:        0
   inequality constraints with lower and upper bounds:        0
        inequality constraints with only upper bounds:       25

iter    objective    inf_pr   inf_du lg(mu)  ||d||  lg(rg) alpha_du alpha_pr  ls
   0  3.7047666e+02 7.79e+01 2.01e+00   0.0 0.00e+00    -  0.00e+00 0.00e+00   0
   1  8.9907254e+01 1.77e+01 2.95e+01  -0.4 1.14e+00    -  6.96e-01 6.09e-02f  1
   2  1.0124606e+02 1.99e+01 3.14e+01  -2.3 1.00e+00    -  3.29e-01 1.02e-01h  2
   3  3.1040340e+02 6.44e+01 5.38e+01  -0.5 5.87e+00    -  9.90e-01 7.15e-02f  3
   4  2.9912411e+02 6.19e+01 6.25e+01  -0.4 1.94e+02    -  1.79e-03 2.55e-06H  1
   5  1.7556340e+02 3.09e+01 7.82e+01  -0.4 8.85e-01    -  8.94e-01 2.71e-01f  2
   6  2.8302512e+02 4.52e+01 3.71e+02  -0.4 1.57e+00    -  4.80e-01 3.91e-01f  1
   7  2.6524129e+02 4.27e+01 3.35e+02  -0.4 8.71e-01    -  2.14e-05 1.45e-06H  1
   8  2.4290213e+02 3.97e+01 4.20e+02  -0.4 2.34e-01    -  6.79e-01 7.02e-02h  1
   9  3.2376034e-01 1.40e-01 1.81e+02  -0.4 8.92e+00    -  3.45e-01 4.65e-01f  2
iter    objective    inf_pr   inf_du lg(mu)  ||d||  lg(rg) alpha_du alpha_pr  ls
  10  3.7776820e-01 5.45e-04 1.37e+02  -1.0 3.94e+00    -  1.00e+00 9.65e-01h  1
  11  3.7893355e-01 0.00e+00 1.98e+01  -7.0 1.37e-01    -  9.27e-01 4.09e-01h  1
  12  3.8145964e-01 0.00e+00 9.42e-01  -2.2 1.38e-01    -  9.21e-01 1.00e+00h  1
  13  3.7825736e-01 0.00e+00 3.16e-02  -4.3 1.25e-02    -  9.66e-01 1.00e+00h  1
  14  3.4207524e-01 0.00e+00 1.22e-02  -4.1 1.22e-01    -  1.00e+00 1.00e+00h  1
  15  2.4856373e-01 0.00e+00 7.36e-03  -3.8 5.27e-01    -  1.00e+00 1.00e+00h  1
  16  1.6328581e-01 0.00e+00 4.01e-03  -4.0 4.19e-01    -  7.05e-01 1.00e+00h  1
  17  9.1641699e-02 0.00e+00 1.41e-03  -5.6 5.87e-01    -  3.75e-01 8.12e-01h  1
  18  3.8872760e-02 0.00e+00 2.93e-04  -4.9 4.42e-01    -  7.89e-01 1.00e+00h  1
  19  2.3567007e-02 0.00e+00 2.98e-04  -5.5 2.40e-01    -  9.66e-01 1.00e+00h  1
iter    objective    inf_pr   inf_du lg(mu)  ||d||  lg(rg) alpha_du alpha_pr  ls
  20  1.0101818e-02 0.00e+00 5.23e-04  -5.5 3.64e-01    -  8.83e-01 7.44e-01H  1
  21  1.3691503e-01 0.00e+00 2.45e-03  -4.2 4.06e+00    -  4.83e-02 4.13e-01f  1
  22  3.9732307e-02 0.00e+00 1.35e-03  -4.9 2.94e+00    -  3.30e-01 4.46e-01h  1
  23  3.6219785e-02 0.00e+00 3.98e-04  -4.9 1.51e-01    -  1.00e+00 1.00e+00f  1
  24  2.9022030e-02 0.00e+00 1.73e-04  -4.9 1.28e-01    -  1.00e+00 1.00e+00h  1
  25  4.5397587e-02 0.00e+00 2.97e-02  -5.7 3.12e-01    -  9.94e-01 1.00e+00H  1
  26  3.0373351e-02 0.00e+00 3.32e-05  -5.0 3.06e-01    -  1.00e+00 1.00e+00h  1
  27  2.6653864e-02 0.00e+00 1.20e-04  -5.1 4.59e-02    -  1.00e+00 1.00e+00h  1
  28  2.0098647e-02 0.00e+00 1.90e-04  -5.4 1.29e-01    -  9.90e-01 1.00e+00h  1
  29  1.3212688e-02 2.71e-02 4.55e-04  -5.9 4.24e-01    -  1.00e+00 1.00e+00h  1
iter    objective    inf_pr   inf_du lg(mu)  ||d||  lg(rg) alpha_du alpha_pr  ls
  30  1.7167461e-02 0.00e+00 2.37e-04  -5.4 2.90e-01    -  1.00e+00 1.00e+00h  1
  31  1.3255833e-02 1.45e-03 2.48e-04  -5.8 2.21e-01    -  1.00e+00 1.00e+00h  1
  32  2.0941469e-02 0.00e+00 1.22e-03  -5.4 3.65e-01    -  1.00e+00 1.00e+00H  1
  33  1.2477519e-02 0.00e+00 5.81e-04  -5.5 3.34e-01    -  1.00e+00 4.22e-01h  1
  34  8.1127121e-02 0.00e+00 9.10e-02  -5.7 2.34e-01    -  1.00e+00 4.01e-01h  1
  35 -3.8004963e-02 4.18e-01 1.18e-02  -5.7 1.47e+01    -  4.24e-03 4.63e-03f  2
  36 -4.8368423e-02 4.32e-01 1.10e-02  -4.9 4.31e-02    -  1.00e+00 5.46e-01h  1
  37 -6.7963778e-02 1.45e-01 2.11e-01  -4.2 5.51e-02    -  1.00e+00 6.48e-01h  1
  38  6.3201452e-02 1.25e-01 2.79e-02  -4.5 1.15e-02    -  1.00e+00 1.00e+00h  1
  39  5.8681853e-02 9.92e-02 4.53e-02  -4.6 1.80e-02    -  1.00e+00 4.48e-01h  1
iter    objective    inf_pr   inf_du lg(mu)  ||d||  lg(rg) alpha_du alpha_pr  ls
  40  2.5221899e-03 0.00e+00 2.23e-01  -4.6 1.00e-02    -  1.00e+00 9.82e-01f  1
  41 -4.1237700e-02 1.02e-01 3.53e-01  -5.0 1.58e-01    -  1.00e+00 2.00e-01f  1
  42 -6.2424887e-02 0.00e+00 4.58e-01  -3.9 1.49e-02    -  1.00e+00 8.98e-01h  1
  43 -6.1056303e-02 0.00e+00 1.50e-01  -9.9 7.70e-04    -  9.36e-01 1.00e+00h  1
  44 -7.2079299e-02 0.00e+00 8.41e-02  -4.0 6.42e-02    -  1.00e+00 3.45e-01f  1
  45 -7.3004074e-02 0.00e+00 7.99e-03  -4.9 7.43e-03    -  1.00e+00 1.00e+00h  1
  46 -7.6858557e-02 0.00e+00 6.44e-03  -4.7 3.74e-02    -  1.00e+00 6.47e-01h  1
  47 -8.7325593e-02 0.00e+00 1.15e-02  -5.0 7.52e-02    -  1.00e+00 1.00e+00h  1
  48 -8.9820389e-02 0.00e+00 1.15e-02  -5.3 1.33e-02    -  1.00e+00 9.95e-01h  1
  49 -8.6609049e-02 0.00e+00 8.43e-03  -5.5 1.57e-02    -  1.00e+00 1.00e+00H  1
iter    objective    inf_pr   inf_du lg(mu)  ||d||  lg(rg) alpha_du alpha_pr  ls
  50 -9.1195046e-02 0.00e+00 6.20e-03  -6.1 6.94e-03    -  1.00e+00 1.00e+00h  1
  51 -9.1718288e-02 0.00e+00 2.44e-03  -7.3 2.14e-03    -  1.00e+00 1.00e+00h  1
  52 -9.1878211e-02 0.00e+00 1.05e-03  -8.2 2.90e-03    -  1.00e+00 1.00e+00h  1
  53 -9.2019765e-02 0.00e+00 1.87e-03  -9.2 5.37e-03    -  1.00e+00 1.00e+00h  1
  54 -9.2037379e-02 0.00e+00 4.18e-03  -8.0 3.45e-01    -  1.00e+00 3.76e-02h  3
  55 -9.1281732e-02 0.00e+00 5.78e-03  -6.4 4.73e-02    -  1.00e+00 9.02e-01H  1
  56 -9.1649378e-02 0.00e+00 2.73e-03  -6.5 3.21e-02    -  5.08e-01 1.00e+00h  1
  57 -9.2305677e-02 0.00e+00 1.68e-04  -6.5 2.56e-02    -  1.00e+00 1.00e+00h  1

Number of Iterations....: 57

                                   (scaled)                 (unscaled)
Objective...............:  -5.0591988898320733e-04   -9.2305677391828572e-02
Dual infeasibility......:   1.6762516361756399e-04    3.0583407793538870e-02
Constraint violation....:   0.0000000000000000e+00    0.0000000000000000e+00
Variable bound violation:   0.0000000000000000e+00    0.0000000000000000e+00
Complementarity.........:   3.3174886048554950e-07    6.0527968869992981e-05
Overall NLP error.......:   1.6762516361756399e-04    3.0583407793538870e-02


Number of objective function evaluations             = 78
Number of objective gradient evaluations             = 58
Number of equality constraint evaluations            = 0
Number of inequality constraint evaluations          = 84
Number of equality constraint Jacobian evaluations   = 0
Number of inequality constraint Jacobian evaluations = 58
Number of Lagrangian Hessian evaluations             = 0
Total seconds in IPOPT                               = 9.981

EXIT: Optimal Solution Found.
